5964
0 0 0 1 0 1 1 0 0 1 0 1 0 1 1 0 0 1 0 1 
19 19 19 17 3 5 3 5 3 3 3 3 3 3 3 5 5 5 5 5 5 5 5 5 6 6 6 6 6 6 6 9 9 9 11 9 9 9 9 9 9 9 11 11 11 11 11 11 13 13 13 13 13 13 13 14 14 13 14 13 17 14 14 14 14 17 17 17 17 17 17 17 17 19 19 19 19 19 19 19 